UNSAT
Input variables: 7254
Total nodes: 5997042
Maximum live nodes: 57737
Total apply operations: 15877687
Total GCs performed: 1913
Results from proof generation
Total Clauses: 39788446
Input clauses: 19344
Elapsed time for SAT: 907.95 seconds
c parsed a formula with 7254 variables and 19344 clauses
c VERIFIED
c Added clauses = 39788446.  Deleted clauses = 39663224.  Max live clauses = 212377
c verification time = 36.74 secs
